NAME : st70.843.tour
COMMENT : Cost = 281_843
COMMENT : Found by LKH [Keld Helsgaun] Thu Nov 16 14:49:36 2017
TYPE : TOUR
DIMENSION : 72
TOUR_SECTION
1
36
13
31
69
38
5
10
52
60
12
21
34
33
62
54
67
48
11
64
65
56
51
50
58
37
16
72
2
7
32
3
30
20
14
28
8
26
49
55
19
24
15
57
35
70
29
71
23
59
22
63
66
4
18
42
44
68
27
46
45
25
39
61
40
9
17
43
41
6
53
47
-1
EOF
